p tw 172 508
0 1
0 2
0 51
0 165
0 167
0 169
1 2
1 130
2 53
2 103
2 104
3 4
3 5
3 6
3 52
3 85
3 86
4 5
4 6
4 28
4 140
4 155
4 162
5 6
5 29
5 83
5 84
6 75
6 105
6 106
7 8
7 9
7 10
7 25
7 123
7 136
7 147
8 9
8 10
8 26
8 92
8 131
9 10
9 135
9 148
10 121
10 133
10 134
11 12
11 68
11 104
11 105
12 101
12 103
12 130
12 169
13 14
13 97
13 98
13 99
13 100
14 15
14 16
14 17
15 16
15 17
15 45
15 128
15 156
15 164
15 170
16 17
16 99
16 111
16 158
17 48
17 125
17 132
18 19
18 20
18 58
19 20
19 90
19 96
19 163
20 54
20 55
20 56
20 57
21 22
21 23
21 24
21 64
21 138
21 139
21 140
21 141
22 23
22 24
22 57
22 62
22 152
23 24
23 65
23 113
23 114
24 56
24 60
24 89
24 90
25 26
25 123
25 136
25 147
26 92
26 131
27 28
27 29
27 30
27 63
27 64
27 65
28 29
28 30
28 140
28 155
28 162
29 30
29 83
29 84
30 89
30 95
30 114
30 141
30 143
31 32
31 97
31 159
32 87
32 100
32 112
32 160
33 34
33 35
33 84
33 86
33 117
33 155
34 35
34 115
34 161
34 162
35 116
36 37
36 80
36 138
36 161
37 41
37 74
37 81
37 107
38 39
38 54
38 59
38 134
39 133
39 137
39 147
39 148
40 41
40 42
40 43
40 44
40 73
40 82
41 42
41 43
41 44
41 74
41 81
41 107
42 43
42 44
42 109
43 44
43 79
43 93
43 108
44 94
45 46
45 47
45 48
45 49
45 128
45 156
45 164
45 170
46 47
46 48
46 49
46 61
46 91
46 92
47 48
47 49
47 127
47 157
47 166
48 49
48 125
48 132
49 124
49 131
49 145
49 146
50 51
50 52
50 53
50 101
50 102
51 52
51 53
51 165
51 167
51 169
52 53
52 85
52 86
53 103
53 104
54 55
54 56
54 57
54 59
54 134
55 56
55 57
55 58
55 163
56 57
56 60
56 89
56 90
57 62
57 152
58 163
59 60
59 61
59 62
59 134
60 61
60 62
60 89
60 90
61 62
61 91
61 92
62 152
63 64
63 65
63 129
63 153
63 154
64 65
64 138
64 139
64 140
64 141
65 113
65 114
66 67
66 68
66 69
66 70
66 119
66 168
67 68
67 69
67 70
67 118
67 151
68 69
68 70
68 104
68 105
69 70
69 75
69 76
69 77
69 78
70 83
70 106
70 171
71 72
71 164
72 78
72 150
72 154
72 156
72 157
73 74
73 82
74 81
74 107
75 76
75 77
75 78
75 105
75 106
76 77
76 78
76 118
76 119
76 120
77 78
77 153
77 170
77 171
78 150
78 154
78 156
78 157
79 80
79 81
79 82
79 93
79 108
80 81
80 82
80 138
80 161
81 82
81 107
83 84
83 106
83 171
84 86
84 117
84 155
85 86
85 167
86 117
86 155
87 88
87 100
87 112
87 160
88 120
88 149
88 150
89 90
89 95
89 114
89 141
89 143
90 96
90 163
91 92
91 146
91 152
91 166
92 131
93 94
93 95
93 96
93 108
94 95
94 96
95 96
95 114
95 141
95 143
96 163
97 98
97 99
97 100
97 159
98 99
98 100
98 110
99 100
99 111
99 158
100 112
100 160
101 102
101 103
101 130
101 169
102 165
103 104
103 130
103 169
104 105
105 106
106 171
107 108
107 109
108 109
110 111
110 112
111 112
111 158
112 160
113 114
113 127
113 128
113 129
114 141
114 143
115 116
115 117
115 161
115 162
116 117
117 155
118 119
118 120
118 151
119 120
119 168
120 149
120 150
121 122
121 123
121 133
121 134
122 123
122 137
123 136
123 147
124 125
124 126
124 131
124 145
124 146
125 126
125 132
126 144
127 128
127 129
127 157
127 166
128 129
128 156
128 164
128 170
129 153
129 154
130 169
131 145
131 146
132 144
132 145
133 134
133 137
133 147
133 148
135 136
135 148
136 147
137 147
137 148
138 139
138 140
138 141
138 161
139 140
139 141
139 142
140 141
140 155
140 162
141 143
142 143
144 145
145 146
146 152
146 166
147 148
149 150
149 158
149 159
149 160
150 154
150 156
150 157
151 168
152 166
153 154
153 170
153 171
154 156
154 157
155 162
156 157
156 164
156 170
157 166
158 159
158 160
159 160
161 162
164 170
165 167
165 169
167 169
170 171
